NAME : random32.506.tour
COMMENT : Length = 506
COMMENT : Found by LKH [Keld Helsgaun] Tue Sep  3 16:29:43 2024
TYPE : TOUR
DIMENSION : 32
TOUR_SECTION
1
11
25
9
27
32
18
17
6
16
31
14
15
4
26
24
13
2
3
19
10
8
5
21
22
28
29
20
7
30
23
12
-1
EOF
